c Generated map
c Size: 9 * 9, weights in range: 1 to 10, walls: True, with ratio 0.05
c dim 8 of 8
c
p sp 81 129
c graph contains 81 nodes and 129 arcs
c
a 1 10 9
a 10 1 9
a 1 2 7
a 2 1 7
a 2 3 5
a 3 2 5
a 3 12 9
a 12 3 9
a 3 4 1
a 4 3 1
a 4 13 4
a 13 4 4
a 4 5 6
a 5 4 6
a 5 14 2
a 14 5 2
a 5 6 6
a 6 5 6
a 6 15 5
a 15 6 5
a 8 17 7
a 17 8 7
a 8 9 4
a 9 8 4
a 9 18 6
a 18 9 6
a 10 19 7
a 19 10 7
a 12 21 1
a 21 12 1
a 12 13 10
a 13 12 10
a 13 14 7
a 14 13 7
a 14 23 2
a 23 14 2
a 14 15 5
a 15 14 5
a 15 24 3
a 24 15 3
a 15 16 6
a 16 15 6
a 16 25 1
a 25 16 1
a 16 17 3
a 17 16 3
a 17 26 9
a 26 17 9
a 17 18 4
a 18 17 4
a 18 27 2
a 27 18 2
a 19 28 2
a 28 19 2
a 19 20 4
a 20 19 4
a 20 29 8
a 29 20 8
a 20 21 7
a 21 20 7
a 21 30 9
a 30 21 9
a 23 32 10
a 32 23 10
a 23 24 3
a 24 23 3
a 24 33 2
a 33 24 2
a 24 25 8
a 25 24 8
a 25 34 8
a 34 25 8
a 25 26 3
a 26 25 3
a 26 35 5
a 35 26 5
a 26 27 10
a 27 26 10
a 27 36 4
a 36 27 4
a 28 37 10
a 37 28 10
a 28 29 2
a 29 28 2
a 29 38 5
a 38 29 5
a 29 30 9
a 30 29 9
a 30 39 10
a 39 30 10
a 30 31 2
a 31 30 2
a 31 40 3
a 40 31 3
a 31 32 10
a 32 31 10
a 32 41 4
a 41 32 4
a 32 33 10
a 33 32 10
a 33 42 1
a 42 33 1
a 33 34 1
a 34 33 1
a 34 43 2
a 43 34 2
a 34 35 2
a 35 34 2
a 35 36 10
a 36 35 10
a 36 45 5
a 45 36 5
a 37 46 8
a 46 37 8
a 37 38 7
a 38 37 7
a 38 47 3
a 47 38 3
a 38 39 7
a 39 38 7
a 39 48 5
a 48 39 5
a 39 40 8
a 40 39 8
a 40 49 9
a 49 40 9
a 40 41 9
a 41 40 9
a 41 50 7
a 50 41 7
a 41 42 6
a 42 41 6
a 42 51 2
a 51 42 2
a 42 43 9
a 43 42 9
a 43 52 2
a 52 43 2
a 45 54 4
a 54 45 4
a 46 55 8
a 55 46 8
a 46 47 1
a 47 46 1
a 47 56 8
a 56 47 8
a 47 48 10
a 48 47 10
a 48 57 10
a 57 48 10
a 48 49 3
a 49 48 3
a 49 58 1
a 58 49 1
a 49 50 5
a 50 49 5
a 50 59 3
a 59 50 3
a 50 51 7
a 51 50 7
a 51 60 2
a 60 51 2
a 51 52 2
a 52 51 2
a 52 61 8
a 61 52 8
a 52 53 4
a 53 52 4
a 53 62 2
a 62 53 2
a 53 54 6
a 54 53 6
a 54 63 4
a 63 54 4
a 55 64 8
a 64 55 8
a 55 56 6
a 56 55 6
a 56 65 7
a 65 56 7
a 56 57 2
a 57 56 2
a 57 66 9
a 66 57 9
a 57 58 2
a 58 57 2
a 58 67 8
a 67 58 8
a 58 59 1
a 59 58 1
a 59 68 10
a 68 59 10
a 59 60 8
a 60 59 8
a 60 69 1
a 69 60 1
a 60 61 8
a 61 60 8
a 61 70 3
a 70 61 3
a 61 62 6
a 62 61 6
a 62 71 5
a 71 62 5
a 62 63 4
a 63 62 4
a 63 72 4
a 72 63 4
a 64 73 8
a 73 64 8
a 64 65 7
a 65 64 7
a 65 74 8
a 74 65 8
a 65 66 6
a 66 65 6
a 66 75 2
a 75 66 2
a 66 67 6
a 67 66 6
a 67 76 10
a 76 67 10
a 67 68 1
a 68 67 1
a 68 77 3
a 77 68 3
a 68 69 9
a 69 68 9
a 69 78 10
a 78 69 10
a 69 70 9
a 70 69 9
a 70 79 5
a 79 70 5
a 70 71 3
a 71 70 3
a 71 80 7
a 80 71 7
a 71 72 4
a 72 71 4
a 72 81 4
a 81 72 4
a 73 74 4
a 74 73 4
a 74 75 6
a 75 74 6
a 75 76 1
a 76 75 1
a 76 77 5
a 77 76 5
a 77 78 4
a 78 77 4
a 78 79 10
a 79 78 10
a 79 80 4
a 80 79 4
a 80 81 5
a 81 80 5
